NAME: st70-12-1
TYPE: TSP
COMMENT: min_cost = 275.69
DIMENSION: 12
EDGE_WEIGHT_TYPE: EUC_2D
NODE_COORD_SECTION
1 48 67
2 29 51
3 58 85
4 16 74
5 48 82
6 20 18
7 64 8
8 37 64
9 81 76
10 62 1
11 79 70
12 10 68
EOF
